ACTORES = {Actor1, Actor2, Actor3, Actor4} ;

Escenas = [| 0,1,0,0,0,0,1,10
           | 0,1,1,1,0,1,1,20
           | 1,1,1,1,0,1,0,5
           | 1,0,0,0,1,1,0,15|]; 
           
Duracion = [2,1,1,1,3,4,2];

%Ejecución con Gecode

% Orden de las Escenas: [5, 1, 6, 4, 3, 2, 7]
% Costo: 390
% ----------
% ==========
% Finished in 15s 887msec
